Musil/problem_U43.smt2
(set-info :smt-lib-version 2.6)
(set-logic AUFNIRA)
(set-info :source |
Generated by: Mirek Olšák, Mikoláš Janota, Chad E. Brown
Generated on: 2024-04-14
Application: Mathematics challenges involving function synthesis
From a collection by: Vít Musil
Source url: https://prase.cz/library/FunkcionalniRovniceVM/FunkcionalniRovniceVM.pdf
Problem number: Úloha 43
Original source: IMOSC-2003-A5
|)
(set-info :license "https://creativecommons.org/licenses/by-nc/4.0/")
(set-info :category "crafted")
(set-info :status sat)

; Special functions
(declare-fun sqrt (Real) Real)
(assert (forall ((x Real)) (=> (>= x 0.0) (>= (sqrt x) 0.0))))
(assert (forall ((x Real)) (=> (>= x 0.0) (= (* (sqrt x) (sqrt x)) x))))

; Header
(declare-fun f (Real) Real)
(assert (forall ((x Real)) (=> (> x 0.0) (> (f x) 0.0))))

; Equations
(assert (forall ((x Real) (y Real) (z Real)) (=> (and (> x 0.0) (> y 0.0) (> z 0.0)) (= (+ (+ (+ (f (* (* x y) z)) (f x)) (f y)) (f z)) (* (* (f (sqrt (* x y))) (f (sqrt (* y z)))) (f (sqrt (* x z))))))))
(assert (forall ((x Real) (y Real)) (=> (and (> x 0.0) (> y 0.0)) (=> (and (<= 1.0 x) (< x y)) (< (f x) (f y))))))

; Find all possible f

(check-sat)
(exit)
(get-model)
